data/lp_files/pEFS/39_6.lp
\ Model foo
\ LP format - for model browsing. Use MPS format to capture full model detail.
Minimize
  z
Subject To
 allocateEach[1]: x[1,1] + x[2,1] = 1
 allocateEach[2]: x[1,2] + x[2,2] = 1
 allocateEach[3]: x[1,3] + x[2,3] = 1
 allocateEach[4]: x[1,4] + x[2,4] = 1
 allocateEach[5]: x[1,5] + x[2,5] = 1
 allocateEach[6]: x[1,6] + x[2,6] = 1
 allocateEach[7]: x[1,7] + x[2,7] = 1
 allocateEach[8]: x[1,8] + x[2,8] = 1
 allocateEach[9]: x[1,9] + x[2,9] = 1
 allocateEach[10]: x[1,10] + x[2,10] = 1
 allocateEach[11]: x[1,11] + x[2,11] = 1
 allocateEach[12]: x[1,12] + x[2,12] = 1
 allocateEach[13]: x[1,13] + x[2,13] = 1
 allocateEach[14]: x[1,14] + x[2,14] = 1
 allocateEach[15]: x[1,15] + x[2,15] = 1
 allocateEach[16]: x[1,16] + x[2,16] = 1
 allocateEach[17]: x[1,17] + x[2,17] = 1
 allocateEach[18]: x[1,18] + x[2,18] = 1
 allocateEach[19]: x[1,19] + x[2,19] = 1
 allocateAllCash: cashProportion[1] + cashProportion[2] = 1
 findWorstP[1,2]: z + 0.0458815567612209 cashProportion[1]
   - 0.0458815567612209 cashProportion[2] + 0.0912010644521168 x[1,1]
   + 0.0039572842706553 x[1,2] + 0.0571913605028618 x[1,3]
   + 0.1145088952868171 x[1,4] + 0.00261524873538959 x[1,5]
   + 0.0583498698110827 x[1,6] + 0.0874273064085064 x[1,7]
   + 0.0748328190775513 x[1,8] + 0.0722175703421617 x[1,9]
   + 0.0861655635975728 x[1,10] + 0.0658629747307326 x[1,11]
   + 0.0142921049311203 x[1,12] + 0.0240419357428798 x[1,13]
   + 0.0154391438501508 x[1,14] + 0.0112868629632603 x[1,15]
   + 0.0473268257991994 x[1,16] + 0.068845275920212 x[1,17]
   + 0.0468335990640162 x[1,18] + 0.0117227377524919 x[1,19]
   - 0.0912010644521168 x[2,1] - 0.0039572842706553 x[2,2]
   - 0.0571913605028618 x[2,3] - 0.1145088952868171 x[2,4]
   - 0.00261524873538959 x[2,5] - 0.0583498698110827 x[2,6]
   - 0.0874273064085064 x[2,7] - 0.0748328190775513 x[2,8]
   - 0.0722175703421617 x[2,9] - 0.0861655635975728 x[2,10]
   - 0.0658629747307326 x[2,11] - 0.0142921049311203 x[2,12]
   - 0.0240419357428798 x[2,13] - 0.0154391438501508 x[2,14]
   - 0.0112868629632603 x[2,15] - 0.0473268257991994 x[2,16]
   - 0.068845275920212 x[2,17] - 0.0468335990640162 x[2,18]
   - 0.0117227377524919 x[2,19] >= 0
 findWorstP[2,1]: z - 0.042407472196601 cashProportion[1]
   + 0.042407472196601 cashProportion[2] - 0.042121221759274 x[1,1]
   - 0.0101141821188893 x[1,2] - 0.0307984266827815 x[1,3]
   - 0.00706084412073407 x[1,4] - 0.0910382409380533 x[1,5]
   - 0.0699511253882934 x[1,6] - 0.00906459718202347 x[1,7]
   - 0.1028593238128558 x[1,8] - 0.0990002438429651 x[1,9]
   - 0.05764235658323 x[1,10] - 0.0594022666793889 x[1,11]
   - 0.101958165028678 x[1,12] - 0.0651802847661758 x[1,13]
   - 0.0745205305174772 x[1,14] - 0.0185426672179638 x[1,15]
   - 0.0336927366601995 x[1,16] - 0.0677883443062667 x[1,17]
   - 0.0168039608579032 x[1,18] - 5.30093e-05 x[1,19]
   + 0.042121221759274 x[2,1] + 0.0101141821188893 x[2,2]
   + 0.0307984266827815 x[2,3] + 0.00706084412073407 x[2,4]
   + 0.0910382409380533 x[2,5] + 0.0699511253882934 x[2,6]
   + 0.00906459718202347 x[2,7] + 0.1028593238128558 x[2,8]
   + 0.0990002438429651 x[2,9] + 0.05764235658323 x[2,10]
   + 0.0594022666793889 x[2,11] + 0.101958165028678 x[2,12]
   + 0.0651802847661758 x[2,13] + 0.0745205305174772 x[2,14]
   + 0.0185426672179638 x[2,15] + 0.0336927366601995 x[2,16]
   + 0.0677883443062667 x[2,17] + 0.0168039608579032 x[2,18]
   + 5.30093e-05 x[2,19] >= 0
Bounds
 z <= 1
 -infinity <= cashProportion[1] <= 1
 -infinity <= cashProportion[2] <= 1
Binaries
 x[1,1] x[1,2] x[1,3] x[1,4] x[1,5] x[1,6] x[1,7] x[1,8] x[1,9] x[1,10]
 x[1,11] x[1,12] x[1,13] x[1,14] x[1,15] x[1,16] x[1,17] x[1,18] x[1,19]
 x[2,1] x[2,2] x[2,3] x[2,4] x[2,5] x[2,6] x[2,7] x[2,8] x[2,9] x[2,10]
 x[2,11] x[2,12] x[2,13] x[2,14] x[2,15] x[2,16] x[2,17] x[2,18] x[2,19]
End
