data/mps_files/pEFS/39_6.mps
NAME foo
ROWS
 N  OBJ
 E  allocateEach[1]
 E  allocateEach[2]
 E  allocateEach[3]
 E  allocateEach[4]
 E  allocateEach[5]
 E  allocateEach[6]
 E  allocateEach[7]
 E  allocateEach[8]
 E  allocateEach[9]
 E  allocateEach[10]
 E  allocateEach[11]
 E  allocateEach[12]
 E  allocateEach[13]
 E  allocateEach[14]
 E  allocateEach[15]
 E  allocateEach[16]
 E  allocateEach[17]
 E  allocateEach[18]
 E  allocateEach[19]
 E  allocateAllCash
 G  findWorstP[1,2]
 G  findWorstP[2,1]
COLUMNS
    z         OBJ       1
    z         findWorstP[1,2]  1
    z         findWorstP[2,1]  1
    cashProportion[1]  allocateAllCash  1
    cashProportion[1]  findWorstP[1,2]  0.0458815567612209
    cashProportion[1]  findWorstP[2,1]  -4.2407472196601043e-02
    cashProportion[2]  allocateAllCash  1
    cashProportion[2]  findWorstP[1,2]  -0.0458815567612209
    cashProportion[2]  findWorstP[2,1]  4.2407472196601043e-02
    MARKER    'MARKER'                 'INTORG'
    x[1,1]    allocateEach[1]  1
    x[1,1]    findWorstP[1,2]  9.1201064452116842e-02
    x[1,1]    findWorstP[2,1]  -4.2121221759273977e-02
    x[1,2]    allocateEach[2]  1
    x[1,2]    findWorstP[1,2]  3.9572842706553030e-03
    x[1,2]    findWorstP[2,1]  -1.0114182118889347e-02
    x[1,3]    allocateEach[3]  1
    x[1,3]    findWorstP[1,2]  5.7191360502861846e-02
    x[1,3]    findWorstP[2,1]  -3.0798426682781502e-02
    x[1,4]    allocateEach[4]  1
    x[1,4]    findWorstP[1,2]  1.1450889528681706e-01
    x[1,4]    findWorstP[2,1]  -7.0608441207340731e-03
    x[1,5]    allocateEach[5]  1
    x[1,5]    findWorstP[1,2]  2.6152487353895914e-03
    x[1,5]    findWorstP[2,1]  -9.1038240938053280e-02
    x[1,6]    allocateEach[6]  1
    x[1,6]    findWorstP[1,2]  5.8349869811082686e-02
    x[1,6]    findWorstP[2,1]  -6.9951125388293414e-02
    x[1,7]    allocateEach[7]  1
    x[1,7]    findWorstP[1,2]  8.7427306408506419e-02
    x[1,7]    findWorstP[2,1]  -9.0645971820234716e-03
    x[1,8]    allocateEach[8]  1
    x[1,8]    findWorstP[1,2]  7.4832819077551280e-02
    x[1,8]    findWorstP[2,1]  -1.0285932381285581e-01
    x[1,9]    allocateEach[9]  1
    x[1,9]    findWorstP[1,2]  0.0722175703421617
    x[1,9]    findWorstP[2,1]  -9.9000243842965116e-02
    x[1,10]   allocateEach[10]  1
    x[1,10]   findWorstP[1,2]  8.6165563597572839e-02
    x[1,10]   findWorstP[2,1]  -5.7642356583229956e-02
    x[1,11]   allocateEach[11]  1
    x[1,11]   findWorstP[1,2]  0.0658629747307326
    x[1,11]   findWorstP[2,1]  -0.0594022666793889
    x[1,12]   allocateEach[12]  1
    x[1,12]   findWorstP[1,2]  1.4292104931120311e-02
    x[1,12]   findWorstP[2,1]  -1.0195816502867805e-01
    x[1,13]   allocateEach[13]  1
    x[1,13]   findWorstP[1,2]  2.4041935742879751e-02
    x[1,13]   findWorstP[2,1]  -0.0651802847661758
    x[1,14]   allocateEach[14]  1
    x[1,14]   findWorstP[1,2]  1.5439143850150832e-02
    x[1,14]   findWorstP[2,1]  -7.4520530517477174e-02
    x[1,15]   allocateEach[15]  1
    x[1,15]   findWorstP[1,2]  1.1286862963260341e-02
    x[1,15]   findWorstP[2,1]  -1.8542667217963802e-02
    x[1,16]   allocateEach[16]  1
    x[1,16]   findWorstP[1,2]  4.7326825799199362e-02
    x[1,16]   findWorstP[2,1]  -3.3692736660199528e-02
    x[1,17]   allocateEach[17]  1
    x[1,17]   findWorstP[1,2]  6.8845275920211960e-02
    x[1,17]   findWorstP[2,1]  -6.7788344306266748e-02
    x[1,18]   allocateEach[18]  1
    x[1,18]   findWorstP[1,2]  4.6833599064016233e-02
    x[1,18]   findWorstP[2,1]  -1.6803960857903161e-02
    x[1,19]   allocateEach[19]  1
    x[1,19]   findWorstP[1,2]  1.1722737752491939e-02
    x[1,19]   findWorstP[2,1]  -5.30093402457513e-05
    x[2,1]    allocateEach[1]  1
    x[2,1]    findWorstP[1,2]  -9.1201064452116842e-02
    x[2,1]    findWorstP[2,1]  4.2121221759273977e-02
    x[2,2]    allocateEach[2]  1
    x[2,2]    findWorstP[1,2]  -3.9572842706553030e-03
    x[2,2]    findWorstP[2,1]  1.0114182118889347e-02
    x[2,3]    allocateEach[3]  1
    x[2,3]    findWorstP[1,2]  -5.7191360502861846e-02
    x[2,3]    findWorstP[2,1]  3.0798426682781502e-02
    x[2,4]    allocateEach[4]  1
    x[2,4]    findWorstP[1,2]  -1.1450889528681706e-01
    x[2,4]    findWorstP[2,1]  7.0608441207340731e-03
    x[2,5]    allocateEach[5]  1
    x[2,5]    findWorstP[1,2]  -2.6152487353895914e-03
    x[2,5]    findWorstP[2,1]  9.1038240938053280e-02
    x[2,6]    allocateEach[6]  1
    x[2,6]    findWorstP[1,2]  -5.8349869811082686e-02
    x[2,6]    findWorstP[2,1]  6.9951125388293414e-02
    x[2,7]    allocateEach[7]  1
    x[2,7]    findWorstP[1,2]  -8.7427306408506419e-02
    x[2,7]    findWorstP[2,1]  9.0645971820234716e-03
    x[2,8]    allocateEach[8]  1
    x[2,8]    findWorstP[1,2]  -7.4832819077551280e-02
    x[2,8]    findWorstP[2,1]  1.0285932381285581e-01
    x[2,9]    allocateEach[9]  1
    x[2,9]    findWorstP[1,2]  -0.0722175703421617
    x[2,9]    findWorstP[2,1]  9.9000243842965116e-02
    x[2,10]   allocateEach[10]  1
    x[2,10]   findWorstP[1,2]  -8.6165563597572839e-02
    x[2,10]   findWorstP[2,1]  5.7642356583229956e-02
    x[2,11]   allocateEach[11]  1
    x[2,11]   findWorstP[1,2]  -0.0658629747307326
    x[2,11]   findWorstP[2,1]  0.0594022666793889
    x[2,12]   allocateEach[12]  1
    x[2,12]   findWorstP[1,2]  -1.4292104931120311e-02
    x[2,12]   findWorstP[2,1]  1.0195816502867805e-01
    x[2,13]   allocateEach[13]  1
    x[2,13]   findWorstP[1,2]  -2.4041935742879751e-02
    x[2,13]   findWorstP[2,1]  0.0651802847661758
    x[2,14]   allocateEach[14]  1
    x[2,14]   findWorstP[1,2]  -1.5439143850150832e-02
    x[2,14]   findWorstP[2,1]  7.4520530517477174e-02
    x[2,15]   allocateEach[15]  1
    x[2,15]   findWorstP[1,2]  -1.1286862963260341e-02
    x[2,15]   findWorstP[2,1]  1.8542667217963802e-02
    x[2,16]   allocateEach[16]  1
    x[2,16]   findWorstP[1,2]  -4.7326825799199362e-02
    x[2,16]   findWorstP[2,1]  3.3692736660199528e-02
    x[2,17]   allocateEach[17]  1
    x[2,17]   findWorstP[1,2]  -6.8845275920211960e-02
    x[2,17]   findWorstP[2,1]  6.7788344306266748e-02
    x[2,18]   allocateEach[18]  1
    x[2,18]   findWorstP[1,2]  -4.6833599064016233e-02
    x[2,18]   findWorstP[2,1]  1.6803960857903161e-02
    x[2,19]   allocateEach[19]  1
    x[2,19]   findWorstP[1,2]  -1.1722737752491939e-02
    x[2,19]   findWorstP[2,1]  5.30093402457513e-05
    MARKER    'MARKER'                 'INTEND'
RHS
    RHS1      allocateEach[1]  1
    RHS1      allocateEach[2]  1
    RHS1      allocateEach[3]  1
    RHS1      allocateEach[4]  1
    RHS1      allocateEach[5]  1
    RHS1      allocateEach[6]  1
    RHS1      allocateEach[7]  1
    RHS1      allocateEach[8]  1
    RHS1      allocateEach[9]  1
    RHS1      allocateEach[10]  1
    RHS1      allocateEach[11]  1
    RHS1      allocateEach[12]  1
    RHS1      allocateEach[13]  1
    RHS1      allocateEach[14]  1
    RHS1      allocateEach[15]  1
    RHS1      allocateEach[16]  1
    RHS1      allocateEach[17]  1
    RHS1      allocateEach[18]  1
    RHS1      allocateEach[19]  1
    RHS1      allocateAllCash  1
BOUNDS
 UP BND1      z         1
 MI BND1      cashProportion[1]
 UP BND1      cashProportion[1]  1
 MI BND1      cashProportion[2]
 UP BND1      cashProportion[2]  1
 BV BND1      x[1,1]  
 BV BND1      x[1,2]  
 BV BND1      x[1,3]  
 BV BND1      x[1,4]  
 BV BND1      x[1,5]  
 BV BND1      x[1,6]  
 BV BND1      x[1,7]  
 BV BND1      x[1,8]  
 BV BND1      x[1,9]  
 BV BND1      x[1,10] 
 BV BND1      x[1,11] 
 BV BND1      x[1,12] 
 BV BND1      x[1,13] 
 BV BND1      x[1,14] 
 BV BND1      x[1,15] 
 BV BND1      x[1,16] 
 BV BND1      x[1,17] 
 BV BND1      x[1,18] 
 BV BND1      x[1,19] 
 BV BND1      x[2,1]  
 BV BND1      x[2,2]  
 BV BND1      x[2,3]  
 BV BND1      x[2,4]  
 BV BND1      x[2,5]  
 BV BND1      x[2,6]  
 BV BND1      x[2,7]  
 BV BND1      x[2,8]  
 BV BND1      x[2,9]  
 BV BND1      x[2,10] 
 BV BND1      x[2,11] 
 BV BND1      x[2,12] 
 BV BND1      x[2,13] 
 BV BND1      x[2,14] 
 BV BND1      x[2,15] 
 BV BND1      x[2,16] 
 BV BND1      x[2,17] 
 BV BND1      x[2,18] 
 BV BND1      x[2,19] 
ENDATA
